1947.66 0
0 53 49 45 35 43 42 38 57 55 52 0
0 19 20 26 99 17 0
0 27 13 83 85 81 82 86 84 87 50 60 29 44 66 65 64 0
0 24 75 74 73 14 22 0
0 16 4 3 5 10 1 2 9 8 6 100 7 0
0 11 97 93 89 88 94 98 95 0
0 12 15 21 25 0
0 51 80 76 79 77 78 56 63 62 0
0 70 72 71 69 61 0
0 68 32 58 67 30 28 41 39 40 33 31 36 47 48 34 37 46 54 59 0
0 18 92 90 96 91 23 0
